20
86
25
92
37
0
69
58
33
72
85
8
79
4
93
41
71
53
7
80
9
60
24
54
13
82
26
27
59
65
11
77
10
15
68
67
43
38
70
30
16
55
91
84
88
23
75
36
14
94
39
40
95
96
62
3
99
46
50
42
6
17
98
57
74
21
87
12
63
66
22
5
44
2
51
19
61
32
90
28
48
83
81
45
73
29
49
78
97
89
1
18
76
34
52
35
31
47
64
56
